#######################################
### Exact MIP solver for the HHCRSP ###
#######################################
-- Instance file: new-instances/HHCRSP_300_60_41_1.0_R_R.txt
-- Max threads: 4
-- Time limit: 999999 seconds
-- Use initial solution: No
Trivial flow violations prevented generating 1192769 variables.
Version identifier: 20.1.0.0 | 2020-11-10 | 9bedb6d68
CPXPARAM_Threads                                 4
CPXPARAM_TimeLimit                               999999
Parallel mode: deterministic, using up to 4 threads for concurrent optimization:
 * Starting dual Simplex on 1 thread...
 * Starting Barrier on 3 threads...
Tried aggregator 1 time.
LP Presolve eliminated 47814 rows and 11210 columns.
Reduced LP has 1307452 rows, 1240132 columns, and 30495567 nonzeros.
Presolve time = 32.11 sec. (6661.71 ticks)
Symmetry aggregator did 2132315 additional substitutions.

Iteration log . . .
Iteration:     1   Dual objective     =             0.000000

Dual crossover.
  Dual:  Fixing 2042 variables.
     2041 DMoves:  Infeasibility  1.61665126e-12  Objective  3.94333333e+02
        0 DMoves:  Infeasibility  6.42328783e-13  Objective  3.94333333e+02
  Dual:  Pushed 68, exchanged 1974.
  Primal:  Fixing 1498 variables.
     1497 PMoves:  Infeasibility  2.77555756e-16  Objective  3.94333333e+02
        0 PMoves:  Infeasibility  8.32667268e-16  Objective  3.94333333e+02
  Primal:  Pushed 1340, exchanged 158.

Dual simplex solved model.


Solution status from MIP model:
-- Processing time: 53.733 sec.
-- Memory used: 1098.87 MB
-- Best bound: inf
-- Obj value: 394.333
-- Gap: inf%
-- Total distance: 1183
-- Total tardiness: 0
-- Largest tardiness: 0
